NAME          SOLUTION
ROWS
 G  N
 G  P
 G  K
 G  S
 G  ZN
 G  WATR
 G  DEN
 E  WT
 N  COST
 N  PRICE
COLUMNS
*234567890123456789012345678901234567890123456789012345678901
    WATER     WATR          1.000000   DEN           0.119750   
    WATER     WT            1.000000   COST          0.010000   
    WATER     PRICE         0.000000   SCALE      2000.000000   
    I320000   N             0.320000   WATR          0.200000   
    I320000   DEN           0.090262   WT            1.000000   
    I320000   COST        100.000000   PRICE       125.000000   
    I320000   SCALE      2000.000000   
    I103400   N             0.100000   P             0.340000   
    I103400   WATR          0.380000   DEN           0.085470   
    I103400   WT            1.000000   COST        190.000000   
    I103400   PRICE       237.500000   SCALE      2000.000000   
    I000062   K             0.620000   DEN           0.060457   
    I000062   WT            1.000000   COST         90.000000   
    I000062   PRICE       112.500000   SCALE      2000.000000   
    I120000   N             0.120000   S             0.260000   
    I120000   WATR          0.360000   DEN           0.089714   
    I120000   WT            1.000000   COST        135.000000   
    I120000   PRICE       168.750000   SCALE      2000.000000   
    I100000   N             0.100000   S             0.050000   
    I100000   ZN            0.100000   WATR          0.600000   
    I100000   DEN           0.094690   WT            1.000000   
    I100000   COST        190.000000   PRICE       237.500000   
    I100000   SCALE      2000.000000   
    LASSO     DEN           0.100000   WT            1.000000   
    LASSO     COST          5.625000   PRICE         6.250000   
    LASSO     SCALE         2.500000   
    SQUADRON  DEN           0.100000   WT            1.000000   
    SQUADRON  COST          5.000000   PRICE         6.250000   
    SQUADRON  SCALE         1.165000   
    PRODUCT   WT           -1.000000   COST          0.000000   
    PRODUCT   PRICE         0.000000   SCALE         1.000000   
*234567890123456789012345678901234567890123456789012345678901
RHS
RANGES
ENDATA
